c This Formular is generated by mcnf
c
c    horn? no 
c    forced? no 
c    mixed sat? no 
c    clause length = 3 
c
p cnf 20  91 
 -7 14 4 0
10 7 -15 0
4 12 -7 0
5 -19 9 0
-2 -14 -5 0
12 -5 -15 0
12 19 20 0
-17 16 -13 0
15 16 6 0
2 10 -4 0
-5 10 -7 0
-15 19 18 0
-16 3 -14 0
-7 5 17 0
-16 -19 7 0
1 -3 -11 0
6 -14 16 0
-5 -8 19 0
7 18 6 0
-18 5 -15 0
14 6 2 0
%
0

78 5 46 60 17 74 16 82 28 65 58 39 15 87 2 71 4 55 33 25
